0001 1
0002 1
0003 1
0004 1
0005 2
0006 17
0007 18
0008 4
0009 4
0010 4
0011 12
0012 22
0013 5
0014 7
0015 22
0016 1
0017 2
0018 21
0019 3
0020 20
0021 2
0022 8
0023 23
0024 3
0025 20
0026 9
0027 9
0028 9
0029 19
0030 22
0031 17
0032 16
0033 11
0034 5
0035 20
0036 2
0037 2
0038 13
0039 9
0040 15
0041 2
0042 1
0043 10
0044 16
0045 22
0046 18
0047 11
0048 14
0049 2
0050 18
0051 18
0052 11
0053 9
0054 12
0055 20
0056 1
0057 21
0058 15
0059 8
0060 17
0061 3
0062 24
0063 1
0064 24
0065 21
0066 2
0067 24
0068 14
0069 3
0070 8
0071 8
0072 10
0073 10
0074 24
0075 21
0076 10
0077 20
0078 17
0079 13
0080 14
0081 14
0082 2
0083 14
0084 14
0085 18
0086 14
0087 18
0088 9
0089 10
0090 23
0091 8
0092 12
0093 7
0094 5
0095 15
0096 4
0097 7
0098 15
0099 1
0100 5
0101 1
0102 11
0103 7
0104 8
0105 14
0106 6
0107 2
0108 5
0109 12
0110 1
0111 1
0112 6
0113 10
0114 12
0115 4
0116 21
0117 17
0118 6
0119 3
0120 6
0121 17
0122 2
0123 15
0124 15
0125 16
0126 13
0127 13
0128 6
0129 13
0130 24
0131 16
0132 23
0133 12
0134 15
0135 9
0136 16
0137 15
0138 3
0139 2
0140 11
0141 3
0142 7
0143 11
0144 2
0145 6
0146 2
0147 5
0148 14
0149 6
0150 8
0151 6
0152 19
0153 12
0154 9
0155 19
0156 4
0157 19
0158 7
0159 23
0160 4
0161 21
0162 1
0163 2
0164 6
0165 19
0166 21
0167 20
0168 7
0169 1
0170 11
0171 6
0172 1
0173 24
0174 1
0175 5
0176 8
0177 21
0178 1
0179 4
0180 21
0181 8
0182 23
0183 6
0184 6
0185 22
0186 22
0187 8
0188 19
0189 22
0190 13
